(set-logic BV) (define-fun origCir ((n243 Bool) (n237 Bool) (n231 Bool) (n194 Bool)) Bool (and n243 (and n237 (and n231 n194)))) (synth-fun skel ((n243 Bool) (n237 Bool) (n231 Bool) (n194 Bool)) Bool) (declare-var n243 Bool) (declare-var n237 Bool) (declare-var n231 Bool) (declare-var n194 Bool) (constraint (= (origCir n243 n237 n231 n194) (skel n243 n237 n231 n194))) (check-synth)
